\ Model SpaceTimeSPP
\ LP format - for model browsing. Use MPS format to capture full model detail.
Minimize
  5 X_0_1_0_5 + 4 X_0_1_1_5 + 2 X_0_1_2_4 + 4 X_0_1_3_7 + 3 X_0_1_4_7
   + 4 X_0_1_5_9 + 2 X_0_1_6_8 + 4 X_0_1_7_11 + 3 X_0_1_8_11 + 2 X_0_1_9_11
   + 5 X_0_2_0_5 + 5 X_0_2_1_6 + 3 X_0_2_2_5 + 5 X_0_2_3_8 + 4 X_0_2_4_8
   + 4 X_0_2_5_9 + 3 X_0_2_6_9 + 2 X_0_4_0_2 + 2 X_0_4_1_3 + 2 X_0_4_2_4
   + X_0_4_3_4 + 2 X_0_4_4_6 + 3 X_0_4_5_8 + 2 X_0_4_6_8 + 2 X_0_4_7_9
   + 2 X_0_4_8_10 + 2 X_0_4_9_11 + X_0_4_10_11 + 4 X_1_0_0_4 + 3 X_1_0_1_4
   + 3 X_1_0_2_5 + 2 X_1_0_3_5 + 2 X_1_0_4_6 + 3 X_1_0_5_8 + 4 X_1_0_6_10
   + 2 X_1_0_7_9 + 2 X_1_0_8_10 + X_1_4_0_1 + 2 X_1_4_1_3 + 2 X_1_4_2_4
   + X_1_4_3_4 + 2 X_1_4_4_6 + 2 X_1_4_5_7 + 2 X_1_4_6_8 + X_1_4_7_8
   + 2 X_1_4_8_10 + 5 X_1_3_0_5 + 5 X_1_3_1_6 + 3 X_1_3_2_5 + 4 X_1_3_3_7
   + 5 X_1_3_4_9 + 3 X_1_3_5_8 + 4 X_1_3_6_10 + 3 X_1_3_7_10 + 3 X_2_0_0_3
   + 5 X_2_0_1_6 + 4 X_2_0_2_6 + 4 X_2_0_3_7 + 4 X_2_0_4_8 + 4 X_2_0_5_9
   + 5 X_2_0_6_11 + 2 X_2_0_9_11 + X_2_3_0_1 + 3 X_2_3_1_4 + X_2_3_2_3
   + 2 X_2_3_3_5 + 3 X_2_3_4_7 + X_2_3_5_6 + 5 X_2_3_6_11 + 4 X_2_3_7_11
   + 3 X_2_3_8_11 + 4 X_3_1_0_4 + 4 X_3_1_1_5 + 4 X_3_1_2_6 + 4 X_3_1_3_7
   + 3 X_3_1_4_7 + 3 X_3_1_5_8 + 4 X_3_1_6_10 + 3 X_3_1_7_10 + 2 X_3_2_0_2
   + 2 X_3_2_1_3 + 4 X_3_2_2_6 + X_3_2_3_4 + 4 X_3_2_4_8 + 4 X_3_2_5_9
   + 3 X_3_2_6_9 + 3 X_3_2_7_10 + X_3_2_8_9 + 2 X_4_5_0_2 + 2 X_4_5_1_3
   + 3 X_4_5_2_5 + 2 X_4_5_3_5 + 2 X_4_5_4_6 + 2 X_4_5_5_7 + 3 X_4_5_6_9
   + X_4_5_7_8 + 3 X_4_5_8_11 + X_4_5_9_10 + X_5_2_0_1 + X_5_2_1_2
   + X_5_2_2_3 + 2 X_5_2_3_5 + 3 X_5_2_4_7 + 2 X_5_2_5_7 + 4 X_5_2_6_10
   + 2 X_5_2_7_9 + 3 X_5_2_8_11 + X_5_2_9_10 + 2 X_5_3_0_2 + 3 X_5_3_1_4
   + 4 X_5_3_2_6 + 2 X_5_3_3_5 + 2 X_5_3_4_6 + 3 X_5_3_5_8 + 3 X_5_3_6_9
   + 3 X_5_3_7_10 + 3 X_5_3_8_11 + X_5_3_9_10 + X_0_0_0_1 + X_0_0_1_2
   + X_0_0_2_3 + X_0_0_3_4 + X_0_0_4_5 + X_0_0_5_6 + X_0_0_6_7 + X_0_0_7_8
   + X_0_0_8_9 + X_0_0_9_10 + X_0_0_10_11 + X_1_1_0_1 + X_1_1_1_2
   + X_1_1_2_3 + X_1_1_3_4 + X_1_1_4_5 + X_1_1_5_6 + X_1_1_6_7 + X_1_1_7_8
   + X_1_1_8_9 + X_1_1_9_10 + X_1_1_10_11 + X_2_2_0_1 + X_2_2_1_2
   + X_2_2_2_3 + X_2_2_3_4 + X_2_2_4_5 + X_2_2_5_6 + X_2_2_6_7 + X_2_2_7_8
   + X_2_2_8_9 + X_2_2_9_10 + X_2_2_10_11 + X_4_4_0_1 + X_4_4_1_2
   + X_4_4_2_3 + X_4_4_3_4 + X_4_4_4_5 + X_4_4_5_6 + X_4_4_6_7 + X_4_4_7_8
   + X_4_4_8_9 + X_4_4_9_10 + X_4_4_10_11 + X_5_5_0_1 + X_5_5_1_2
   + X_5_5_2_3 + X_5_5_3_4 + X_5_5_4_5 + X_5_5_5_6 + X_5_5_6_7 + X_5_5_7_8
   + X_5_5_8_9 + X_5_5_9_10 + X_5_5_10_11
Subject To
 C1_1: X_0_1_0_5 + X_0_2_0_5 + X_0_4_0_2 + X_0_0_0_1 = 1
 C2_1: - X_2_3_6_11 - X_2_3_7_11 - X_2_3_8_11 - X_5_3_8_11 - X_3_3_10_11
   = -1
 C3_1: X_0_1_1_5 + X_0_2_1_6 + X_0_4_1_3 - X_0_0_0_1 + X_0_0_1_2 = 0
 C3_2: X_0_1_2_4 + X_0_2_2_5 + X_0_4_2_4 - X_0_0_1_2 + X_0_0_2_3 = 0
 C3_3: X_0_1_3_7 + X_0_2_3_8 + X_0_4_3_4 - X_2_0_0_3 - X_0_0_2_3
   + X_0_0_3_4 = 0
 C3_4: X_0_1_4_7 + X_0_2_4_8 + X_0_4_4_6 - X_1_0_0_4 - X_1_0_1_4
   - X_0_0_3_4 + X_0_0_4_5 = 0
 C3_5: X_0_1_5_9 + X_0_2_5_9 + X_0_4_5_8 - X_1_0_2_5 - X_1_0_3_5
   - X_0_0_4_5 + X_0_0_5_6 = 0
 C3_6: X_0_1_6_8 + X_0_2_6_9 + X_0_4_6_8 - X_1_0_4_6 - X_2_0_1_6
   - X_2_0_2_6 - X_0_0_5_6 + X_0_0_6_7 = 0
 C3_7: X_0_1_7_11 + X_0_4_7_9 - X_2_0_3_7 - X_0_0_6_7 + X_0_0_7_8 = 0
 C3_8: X_0_1_8_11 + X_0_4_8_10 - X_1_0_5_8 - X_2_0_4_8 - X_0_0_7_8
   + X_0_0_8_9 = 0
 C3_9: X_0_1_9_11 + X_0_4_9_11 - X_1_0_7_9 - X_2_0_5_9 - X_0_0_8_9
   + X_0_0_9_10 = 0
 C3_10: X_0_4_10_11 - X_1_0_6_10 - X_1_0_8_10 - X_0_0_9_10 + X_0_0_10_11
   = 0
 C3_11: - X_2_0_6_11 - X_2_0_9_11 - X_0_0_10_11 = 0
 C3_12: X_1_0_0_4 + X_1_4_0_1 + X_1_3_0_5 + X_1_1_0_1 = 0
 C3_13: X_1_0_1_4 + X_1_4_1_3 + X_1_3_1_6 - X_1_1_0_1 + X_1_1_1_2 = 0
 C3_14: X_1_0_2_5 + X_1_4_2_4 + X_1_3_2_5 - X_1_1_1_2 + X_1_1_2_3 = 0
 C3_15: X_1_0_3_5 + X_1_4_3_4 + X_1_3_3_7 - X_1_1_2_3 + X_1_1_3_4 = 0
 C3_16: - X_0_1_2_4 + X_1_0_4_6 + X_1_4_4_6 + X_1_3_4_9 - X_3_1_0_4
   - X_1_1_3_4 + X_1_1_4_5 = 0
 C3_17: - X_0_1_0_5 - X_0_1_1_5 + X_1_0_5_8 + X_1_4_5_7 + X_1_3_5_8
   - X_3_1_1_5 - X_1_1_4_5 + X_1_1_5_6 = 0
 C3_18: X_1_0_6_10 + X_1_4_6_8 + X_1_3_6_10 - X_3_1_2_6 - X_1_1_5_6
   + X_1_1_6_7 = 0
 C3_19: - X_0_1_3_7 - X_0_1_4_7 + X_1_0_7_9 + X_1_4_7_8 + X_1_3_7_10
   - X_3_1_3_7 - X_3_1_4_7 - X_1_1_6_7 + X_1_1_7_8 = 0
 C3_20: - X_0_1_6_8 + X_1_0_8_10 + X_1_4_8_10 - X_3_1_5_8 - X_1_1_7_8
   + X_1_1_8_9 = 0
 C3_21: - X_0_1_5_9 - X_1_1_8_9 + X_1_1_9_10 = 0
 C3_22: - X_3_1_6_10 - X_3_1_7_10 - X_1_1_9_10 + X_1_1_10_11 = 0
 C3_23: - X_0_1_7_11 - X_0_1_8_11 - X_0_1_9_11 - X_1_1_10_11 = 0
 C3_24: X_2_0_0_3 + X_2_3_0_1 + X_2_2_0_1 = 0
 C3_25: X_2_0_1_6 + X_2_3_1_4 - X_5_2_0_1 - X_2_2_0_1 + X_2_2_1_2 = 0
 C3_26: X_2_0_2_6 + X_2_3_2_3 - X_3_2_0_2 - X_5_2_1_2 - X_2_2_1_2
   + X_2_2_2_3 = 0
 C3_27: X_2_0_3_7 + X_2_3_3_5 - X_3_2_1_3 - X_5_2_2_3 - X_2_2_2_3
   + X_2_2_3_4 = 0
 C3_28: X_2_0_4_8 + X_2_3_4_7 - X_3_2_3_4 - X_2_2_3_4 + X_2_2_4_5 = 0
 C3_29: - X_0_2_0_5 - X_0_2_2_5 + X_2_0_5_9 + X_2_3_5_6 - X_5_2_3_5
   - X_2_2_4_5 + X_2_2_5_6 = 0
 C3_30: - X_0_2_1_6 + X_2_0_6_11 + X_2_3_6_11 - X_3_2_2_6 - X_2_2_5_6
   + X_2_2_6_7 = 0
 C3_31: X_2_3_7_11 - X_5_2_4_7 - X_5_2_5_7 - X_2_2_6_7 + X_2_2_7_8 = 0
 C3_32: - X_0_2_3_8 - X_0_2_4_8 + X_2_3_8_11 - X_3_2_4_8 - X_2_2_7_8
   + X_2_2_8_9 = 0
 C3_33: - X_0_2_5_9 - X_0_2_6_9 + X_2_0_9_11 - X_3_2_5_9 - X_3_2_6_9
   - X_3_2_8_9 - X_5_2_7_9 - X_2_2_8_9 + X_2_2_9_10 = 0
 C3_34: - X_3_2_7_10 - X_5_2_6_10 - X_5_2_9_10 - X_2_2_9_10 + X_2_2_10_11
   = 0
 C3_35: - X_5_2_8_11 - X_2_2_10_11 = 0
 C3_36: X_3_1_0_4 + X_3_2_0_2 + X_3_3_0_1 = 0
 C3_37: - X_2_3_0_1 + X_3_1_1_5 + X_3_2_1_3 - X_3_3_0_1 + X_3_3_1_2 = 0
 C3_38: X_3_1_2_6 + X_3_2_2_6 - X_5_3_0_2 - X_3_3_1_2 + X_3_3_2_3 = 0
 C3_39: - X_2_3_2_3 + X_3_1_3_7 + X_3_2_3_4 - X_3_3_2_3 + X_3_3_3_4 = 0
 C3_40: - X_2_3_1_4 + X_3_1_4_7 + X_3_2_4_8 - X_5_3_1_4 - X_3_3_3_4
   + X_3_3_4_5 = 0
 C3_41: - X_1_3_0_5 - X_1_3_2_5 - X_2_3_3_5 + X_3_1_5_8 + X_3_2_5_9
   - X_5_3_3_5 - X_3_3_4_5 + X_3_3_5_6 = 0
 C3_42: - X_1_3_1_6 - X_2_3_5_6 + X_3_1_6_10 + X_3_2_6_9 - X_5_3_2_6
   - X_5_3_4_6 - X_3_3_5_6 + X_3_3_6_7 = 0
 C3_43: - X_1_3_3_7 - X_2_3_4_7 + X_3_1_7_10 + X_3_2_7_10 - X_3_3_6_7
   + X_3_3_7_8 = 0
 C3_44: - X_1_3_5_8 + X_3_2_8_9 - X_5_3_5_8 - X_3_3_7_8 + X_3_3_8_9 = 0
 C3_45: - X_1_3_4_9 - X_5_3_6_9 - X_3_3_8_9 + X_3_3_9_10 = 0
 C3_46: - X_1_3_6_10 - X_1_3_7_10 - X_5_3_7_10 - X_5_3_9_10 - X_3_3_9_10
   + X_3_3_10_11 = 0
 C3_47: X_4_5_0_2 + X_4_4_0_1 = 0
 C3_48: - X_1_4_0_1 + X_4_5_1_3 - X_4_4_0_1 + X_4_4_1_2 = 0
 C3_49: - X_0_4_0_2 + X_4_5_2_5 - X_4_4_1_2 + X_4_4_2_3 = 0
 C3_50: - X_0_4_1_3 - X_1_4_1_3 + X_4_5_3_5 - X_4_4_2_3 + X_4_4_3_4 = 0
 C3_51: - X_0_4_2_4 - X_0_4_3_4 - X_1_4_2_4 - X_1_4_3_4 + X_4_5_4_6
   - X_4_4_3_4 + X_4_4_4_5 = 0
 C3_52: X_4_5_5_7 - X_4_4_4_5 + X_4_4_5_6 = 0
 C3_53: - X_0_4_4_6 - X_1_4_4_6 + X_4_5_6_9 - X_4_4_5_6 + X_4_4_6_7 = 0
 C3_54: - X_1_4_5_7 + X_4_5_7_8 - X_4_4_6_7 + X_4_4_7_8 = 0
 C3_55: - X_0_4_5_8 - X_0_4_6_8 - X_1_4_6_8 - X_1_4_7_8 + X_4_5_8_11
   - X_4_4_7_8 + X_4_4_8_9 = 0
 C3_56: - X_0_4_7_9 + X_4_5_9_10 - X_4_4_8_9 + X_4_4_9_10 = 0
 C3_57: - X_0_4_8_10 - X_1_4_8_10 - X_4_4_9_10 + X_4_4_10_11 = 0
 C3_58: - X_0_4_9_11 - X_0_4_10_11 - X_4_4_10_11 = 0
 C3_59: X_5_2_0_1 + X_5_3_0_2 + X_5_5_0_1 = 0
 C3_60: X_5_2_1_2 + X_5_3_1_4 - X_5_5_0_1 + X_5_5_1_2 = 0
 C3_61: - X_4_5_0_2 + X_5_2_2_3 + X_5_3_2_6 - X_5_5_1_2 + X_5_5_2_3 = 0
 C3_62: - X_4_5_1_3 + X_5_2_3_5 + X_5_3_3_5 - X_5_5_2_3 + X_5_5_3_4 = 0
 C3_63: X_5_2_4_7 + X_5_3_4_6 - X_5_5_3_4 + X_5_5_4_5 = 0
 C3_64: - X_4_5_2_5 - X_4_5_3_5 + X_5_2_5_7 + X_5_3_5_8 - X_5_5_4_5
   + X_5_5_5_6 = 0
 C3_65: - X_4_5_4_6 + X_5_2_6_10 + X_5_3_6_9 - X_5_5_5_6 + X_5_5_6_7 = 0
 C3_66: - X_4_5_5_7 + X_5_2_7_9 + X_5_3_7_10 - X_5_5_6_7 + X_5_5_7_8 = 0
 C3_67: - X_4_5_7_8 + X_5_2_8_11 + X_5_3_8_11 - X_5_5_7_8 + X_5_5_8_9 = 0
 C3_68: - X_4_5_6_9 + X_5_2_9_10 + X_5_3_9_10 - X_5_5_8_9 + X_5_5_9_10 = 0
 C3_69: - X_4_5_9_10 - X_5_5_9_10 + X_5_5_10_11 = 0
 C3_70: - X_4_5_8_11 - X_5_5_10_11 = 0
Bounds
Binaries
 X_0_1_0_5 X_0_1_1_5 X_0_1_2_4 X_0_1_3_7 X_0_1_4_7 X_0_1_5_9 X_0_1_6_8
 X_0_1_7_11 X_0_1_8_11 X_0_1_9_11 X_0_2_0_5 X_0_2_1_6 X_0_2_2_5 X_0_2_3_8
 X_0_2_4_8 X_0_2_5_9 X_0_2_6_9 X_0_4_0_2 X_0_4_1_3 X_0_4_2_4 X_0_4_3_4
 X_0_4_4_6 X_0_4_5_8 X_0_4_6_8 X_0_4_7_9 X_0_4_8_10 X_0_4_9_11 X_0_4_10_11
 X_1_0_0_4 X_1_0_1_4 X_1_0_2_5 X_1_0_3_5 X_1_0_4_6 X_1_0_5_8 X_1_0_6_10
 X_1_0_7_9 X_1_0_8_10 X_1_4_0_1 X_1_4_1_3 X_1_4_2_4 X_1_4_3_4 X_1_4_4_6
 X_1_4_5_7 X_1_4_6_8 X_1_4_7_8 X_1_4_8_10 X_1_3_0_5 X_1_3_1_6 X_1_3_2_5
 X_1_3_3_7 X_1_3_4_9 X_1_3_5_8 X_1_3_6_10 X_1_3_7_10 X_2_0_0_3 X_2_0_1_6
 X_2_0_2_6 X_2_0_3_7 X_2_0_4_8 X_2_0_5_9 X_2_0_6_11 X_2_0_9_11 X_2_3_0_1
 X_2_3_1_4 X_2_3_2_3 X_2_3_3_5 X_2_3_4_7 X_2_3_5_6 X_2_3_6_11 X_2_3_7_11
 X_2_3_8_11 X_3_1_0_4 X_3_1_1_5 X_3_1_2_6 X_3_1_3_7 X_3_1_4_7 X_3_1_5_8
 X_3_1_6_10 X_3_1_7_10 X_3_2_0_2 X_3_2_1_3 X_3_2_2_6 X_3_2_3_4 X_3_2_4_8
 X_3_2_5_9 X_3_2_6_9 X_3_2_7_10 X_3_2_8_9 X_4_5_0_2 X_4_5_1_3 X_4_5_2_5
 X_4_5_3_5 X_4_5_4_6 X_4_5_5_7 X_4_5_6_9 X_4_5_7_8 X_4_5_8_11 X_4_5_9_10
 X_5_2_0_1 X_5_2_1_2 X_5_2_2_3 X_5_2_3_5 X_5_2_4_7 X_5_2_5_7 X_5_2_6_10
 X_5_2_7_9 X_5_2_8_11 X_5_2_9_10 X_5_3_0_2 X_5_3_1_4 X_5_3_2_6 X_5_3_3_5
 X_5_3_4_6 X_5_3_5_8 X_5_3_6_9 X_5_3_7_10 X_5_3_8_11 X_5_3_9_10 X_0_0_0_1
 X_0_0_1_2 X_0_0_2_3 X_0_0_3_4 X_0_0_4_5 X_0_0_5_6 X_0_0_6_7 X_0_0_7_8
 X_0_0_8_9 X_0_0_9_10 X_0_0_10_11 X_1_1_0_1 X_1_1_1_2 X_1_1_2_3 X_1_1_3_4
 X_1_1_4_5 X_1_1_5_6 X_1_1_6_7 X_1_1_7_8 X_1_1_8_9 X_1_1_9_10 X_1_1_10_11
 X_2_2_0_1 X_2_2_1_2 X_2_2_2_3 X_2_2_3_4 X_2_2_4_5 X_2_2_5_6 X_2_2_6_7
 X_2_2_7_8 X_2_2_8_9 X_2_2_9_10 X_2_2_10_11 X_3_3_0_1 X_3_3_1_2 X_3_3_2_3
 X_3_3_3_4 X_3_3_4_5 X_3_3_5_6 X_3_3_6_7 X_3_3_7_8 X_3_3_8_9 X_3_3_9_10
 X_3_3_10_11 X_4_4_0_1 X_4_4_1_2 X_4_4_2_3 X_4_4_3_4 X_4_4_4_5 X_4_4_5_6
 X_4_4_6_7 X_4_4_7_8 X_4_4_8_9 X_4_4_9_10 X_4_4_10_11 X_5_5_0_1 X_5_5_1_2
 X_5_5_2_3 X_5_5_3_4 X_5_5_4_5 X_5_5_5_6 X_5_5_6_7 X_5_5_7_8 X_5_5_8_9
 X_5_5_9_10 X_5_5_10_11
End
